(declare-const x0 Real)
(assert (<= 0.0 x0))
(declare-const x1 Real)
(assert (<= 0.000010 x1))
(declare-const x2 Real)
(assert (<= 0.000010 x2))
(declare-const x3 Real)
(assert (<= 0.000010 x3))
(declare-const x4 Real)
(assert (<= 0.0 x4))
(declare-const x5 Real)
(assert (<= 3.0 x5))
(declare-const x6 Real)
(assert (<= 0.010000 x6))
(declare-const x7 Real)
(assert (<= 90.0 x7))
(declare-const x8 Real)
(assert (<= 85.0 x8))
(declare-const x9 Real)
(assert (<= 145.0 x9))

(assert (= (+ (* 1.0 x5) (- (/ (+ x2 x4) x1))) 0.0))
(assert (= (+ (* 1.0 x0) (- (* (* 0.010000 x1) (+ 112.0 (* 13.167000 x5) (* (- 0.666700) (^ x5 2.0)))))) 0.0))
(assert (= (+ (* (- 1.098000) x5) (* 1.0 x7) (* (- 0.325000) x8) (* 0.038000 (^ x5 2.0))) 57.425000))
(assert (= (+ (* 1.0 x8) (- (/ (* 98000.0 x3) (+ (* x0 x6) (* 1000.0 x3))))) 0.0))
(assert (= (+ (* (- 1.220000) x0) (* 1.0 x1) (* 1.0 x4)) 0.0))
(assert (= (+ (* (- 3.0) x7) (* 1.0 x9)) (- 133.0)))
(assert (= (+ (* 1.0 x6) (* 0.222000 x9)) 35.820000))

(minimize
	(+ (* 5.040000 x1) (* 0.035000 x2) (* 10.0 x3) (* 3.360000 x4) (- (* (* 0.063000 x0) x7)))
)
(check-sat)
(get-objectives)
(exit)

